0 4833
2401 4729
4802 4642
7203 4568
9604 4511
12005 4456
14406 4403
16807 4345
19208 4276
21609 4243
24010 4236
26411 4211
28812 4181
31213 4166
33614 4149
36015 4126
38416 4121
40817 4109
43218 4100
45619 4091
48020 4086
50421 4083
52822 4081
55223 4075
57624 4068
